p cnf 430 1488
-191 -156 0
-191 103 0
-191 106 0
-191 19 0
-191 -45 0
191 156 -103 -106 -19 45 0
-192 189 0
-192 103 0
-192 177 0
-192 147 0
-192 -92 0
192 -189 -103 -177 -147 92 0
-193 3 0
-193 -108 0
-193 -180 0
-193 -32 0
-193 95 0
193 -3 108 180 32 -95 0
-194 129 0
-194 32 0
-194 132 0
-194 160 0
-194 155 0
194 -129 -32 -132 -160 -155 0
-195 -27 0
-195 47 0
-195 153 0
-195 55 0
-195 -166 0
195 27 -47 -153 -55 166 0
191 192 193 194 195 0
-196 7 0
-196 -154 0
-196 -156 0
-196 180 0
-196 128 0
196 -7 154 156 -180 -128 0
-197 102 0
-197 128 0
-197 158 0
-197 -190 0
-197 20 0
197 -102 -128 -158 190 -20 0
-198 -14 0
-198 54 0
-198 8 0
-198 72 0
-198 -99 0
198 14 -54 -8 -72 99 0
-199 102 0
-199 31 0
-199 125 0
-199 73 0
-199 -23 0
199 -102 -31 -125 -73 23 0
-200 -144 0
-200 -9 0
-200 22 0
-200 65 0
-200 34 0
200 144 9 -22 -65 -34 0
196 197 198 199 200 0
-201 -162 0
-201 -18 0
-201 -84 0
-201 -48 0
-201 -39 0
201 162 18 84 48 39 0
-202 -55 0
-202 -26 0
-202 75 0
-202 25 0
-202 -172 0
202 55 26 -75 -25 172 0
-203 187 0
-203 35 0
-203 80 0
-203 157 0
-203 82 0
203 -187 -35 -80 -157 -82 0
-204 -23 0
-204 184 0
-204 -102 0
-204 -30 0
-204 -7 0
204 23 -184 102 30 7 0
-205 -16 0
-205 62 0
-205 25 0
-205 -124 0
-205 -82 0
205 16 -62 -25 124 82 0
201 202 203 204 205 0
-206 -151 0
-206 -18 0
-206 -77 0
-206 100 0
-206 -164 0
206 151 18 77 -100 164 0
-207 -151 0
-207 -133 0
-207 -99 0
-207 -167 0
-207 -168 0
207 151 133 99 167 168 0
-208 -174 0
-208 154 0
-208 -21 0
-208 -136 0
-208 6 0
208 174 -154 21 136 -6 0
-209 1 0
-209 130 0
-209 184 0
-209 132 0
-209 10 0
209 -1 -130 -184 -132 -10 0
-210 -172 0
-210 145 0
-210 152 0
-210 65 0
-210 -185 0
210 172 -145 -152 -65 185 0
206 207 208 209 210 0
-211 -187 0
-211 118 0
-211 -96 0
-211 -154 0
-211 18 0
211 187 -118 96 154 -18 0
-212 27 0
-212 168 0
-212 21 0
-212 109 0
-212 -95 0
212 -27 -168 -21 -109 95 0
-213 -176 0
-213 185 0
-213 -173 0
-213 -128 0
-213 -47 0
213 176 -185 173 128 47 0
-214 30 0
-214 39 0
-214 -117 0
-214 22 0
-214 -55 0
214 -30 -39 117 -22 55 0
-215 -24 0
-215 48 0
-215 4 0
-215 -158 0
-215 -122 0
215 24 -48 -4 158 122 0
211 212 213 214 215 0
-216 -30 0
-216 1 0
-216 159 0
-216 109 0
-216 36 0
216 30 -1 -159 -109 -36 0
-217 -95 0
-217 -84 0
-217 -40 0
-217 -138 0
-217 -96 0
217 95 84 40 138 96 0
-218 79 0
-218 -81 0
-218 134 0
-218 110 0
-218 -73 0
218 -79 81 -134 -110 73 0
-219 20 0
-219 130 0
-219 145 0
-219 151 0
-219 29 0
219 -20 -130 -145 -151 -29 0
-220 -89 0
-220 107 0
-220 -54 0
-220 117 0
-220 24 0
220 89 -107 54 -117 -24 0
216 217 218 219 220 0
-221 23 0
-221 -118 0
-221 -14 0
-221 173 0
-221 -5 0
221 -23 118 14 -173 5 0
-222 182 0
-222 -82 0
-222 34 0
-222 -190 0
-222 -55 0
222 -182 82 -34 190 55 0
-223 -12 0
-223 52 0
-223 -119 0
-223 6 0
-223 175 0
223 12 -52 119 -6 -175 0
-224 -168 0
-224 78 0
-224 -65 0
-224 -121 0
-224 23 0
224 168 -78 65 121 -23 0
-225 73 0
-225 -189 0
-225 -117 0
-225 96 0
-225 30 0
225 -73 189 117 -96 -30 0
221 222 223 224 225 0
-226 63 0
-226 -42 0
-226 -162 0
-226 -161 0
-226 123 0
226 -63 42 162 161 -123 0
-227 120 0
-227 -181 0
-227 104 0
-227 -20 0
-227 165 0
227 -120 181 -104 20 -165 0
-228 -149 0
-228 -129 0
-228 -5 0
-228 -165 0
-228 -164 0
228 149 129 5 165 164 0
-229 -18 0
-229 -76 0
-229 55 0
-229 -26 0
-229 27 0
229 18 76 -55 26 -27 0
-230 -102 0
-230 19 0
-230 -86 0
-230 118 0
-230 -150 0
230 102 -19 86 -118 150 0
226 227 228 229 230 0
-231 143 0
-231 -36 0
-231 -138 0
-231 -159 0
-231 -48 0
231 -143 36 138 159 48 0
-232 111 0
-232 -114 0
-232 60 0
-232 80 0
-232 82 0
232 -111 114 -60 -80 -82 0
-233 7 0
-233 -81 0
-233 -127 0
-233 157 0
-233 -190 0
233 -7 81 127 -157 190 0
-234 67 0
-234 37 0
-234 -45 0
-234 150 0
-234 -127 0
234 -67 -37 45 -150 127 0
-235 113 0
-235 116 0
-235 -92 0
-235 -141 0
-235 78 0
235 -113 -116 92 141 -78 0
231 232 233 234 235 0
-236 -169 0
-236 138 0
-236 -176 0
-236 -142 0
-236 -121 0
236 169 -138 176 142 121 0
-237 21 0
-237 -153 0
-237 181 0
-237 -85 0
-237 152 0
237 -21 153 -181 85 -152 0
-238 4 0
-238 -128 0
-238 26 0
-238 -12 0
-238 -105 0
238 -4 128 -26 12 105 0
-239 169 0
-239 29 0
-239 -68 0
-239 80 0
-239 -168 0
239 -169 -29 68 -80 168 0
-240 -59 0
-240 -159 0
-240 -12 0
-240 -180 0
-240 158 0
240 59 159 12 180 -158 0
236 237 238 239 240 0
-241 74 0
-241 143 0
-241 80 0
-241 -55 0
-241 124 0
241 -74 -143 -80 55 -124 0
-242 -10 0
-242 184 0
-242 40 0
-242 154 0
-242 -102 0
242 10 -184 -40 -154 102 0
-243 -186 0
-243 100 0
-243 -142 0
-243 -114 0
-243 125 0
243 186 -100 142 114 -125 0
-244 -1 0
-244 -159 0
-244 64 0
-244 -124 0
-244 155 0
244 1 159 -64 124 -155 0
-245 -10 0
-245 -184 0
-245 150 0
-245 -5 0
-245 53 0
245 10 184 -150 5 -53 0
241 242 243 244 245 0
-246 -173 0
-246 -131 0
-246 190 0
-246 13 0
-246 -94 0
246 173 131 -190 -13 94 0
-247 70 0
-247 130 0
-247 -42 0
-247 -59 0
-247 -58 0
247 -70 -130 42 59 58 0
-248 -94 0
-248 40 0
-248 -61 0
-248 -158 0
-248 -132 0
248 94 -40 61 158 132 0
-249 -160 0
-249 -134 0
-249 38 0
-249 87 0
-249 79 0
249 160 134 -38 -87 -79 0
-250 54 0
-250 -106 0
-250 -96 0
-250 -63 0
-250 160 0
250 -54 106 96 63 -160 0
246 247 248 249 250 0
-251 34 0
-251 -22 0
-251 42 0
-251 -71 0
-251 153 0
251 -34 22 -42 71 -153 0
-252 -13 0
-252 -103 0
-252 26 0
-252 -19 0
-252 182 0
252 13 103 -26 19 -182 0
-253 42 0
-253 -44 0
-253 22 0
-253 97 0
-253 -100 0
253 -42 44 -22 -97 100 0
-254 181 0
-254 -89 0
-254 -105 0
-254 -35 0
-254 -68 0
254 -181 89 105 35 68 0
-255 -3 0
-255 -15 0
-255 181 0
-255 -188 0
-255 -175 0
255 3 15 -181 188 175 0
251 252 253 254 255 0
-256 147 0
-256 -24 0
-256 1 0
-256 -53 0
-256 133 0
256 -147 24 -1 53 -133 0
-257 -52 0
-257 35 0
-257 -109 0
-257 179 0
-257 144 0
257 52 -35 109 -179 -144 0
-258 -147 0
-258 143 0
-258 141 0
-258 5 0
-258 47 0
258 147 -143 -141 -5 -47 0
-259 76 0
-259 -152 0
-259 160 0
-259 87 0
-259 -126 0
259 -76 152 -160 -87 126 0
-260 62 0
-260 -104 0
-260 154 0
-260 -174 0
-260 -83 0
260 -62 104 -154 174 83 0
256 257 258 259 260 0
-261 -64 0
-261 -92 0
-261 160 0
-261 -3 0
-261 48 0
261 64 92 -160 3 -48 0
-262 -91 0
-262 69 0
-262 -124 0
-262 -100 0
-262 130 0
262 91 -69 124 100 -130 0
-263 -44 0
-263 134 0
-263 48 0
-263 -131 0
-263 -9 0
263 44 -134 -48 131 9 0
-264 57 0
-264 169 0
-264 -87 0
-264 -56 0
-264 11 0
264 -57 -169 87 56 -11 0
-265 -42 0
-265 -12 0
-265 -69 0
-265 132 0
-265 151 0
265 42 12 69 -132 -151 0
261 262 263 264 265 0
-266 134 0
-266 -161 0
-266 181 0
-266 -105 0
-266 147 0
266 -134 161 -181 105 -147 0
-267 -116 0
-267 -79 0
-267 10 0
-267 -88 0
-267 -67 0
267 116 79 -10 88 67 0
-268 -166 0
-268 188 0
-268 40 0
-268 -129 0
-268 -11 0
268 166 -188 -40 129 11 0
-269 85 0
-269 33 0
-269 -35 0
-269 107 0
-269 150 0
269 -85 -33 35 -107 -150 0
-270 79 0
-270 -81 0
-270 179 0
-270 136 0
-270 -60 0
270 -79 81 -179 -136 60 0
266 267 268 269 270 0
-271 -58 0
-271 -155 0
-271 161 0
-271 -57 0
-271 -112 0
271 58 155 -161 57 112 0
-272 -19 0
-272 -68 0
-272 8 0
-272 181 0
-272 30 0
272 19 68 -8 -181 -30 0
-273 -137 0
-273 71 0
-273 92 0
-273 5 0
-273 -125 0
273 137 -71 -92 -5 125 0
-274 -48 0
-274 -109 0
-274 -190 0
-274 -20 0
-274 178 0
274 48 109 190 20 -178 0
-275 72 0
-275 -91 0
-275 -83 0
-275 32 0
-275 -171 0
275 -72 91 83 -32 171 0
271 272 273 274 275 0
-276 -142 0
-276 137 0
-276 -11 0
-276 -131 0
-276 17 0
276 142 -137 11 131 -17 0
-277 -25 0
-277 -133 0
-277 11 0
-277 161 0
-277 120 0
277 25 133 -11 -161 -120 0
-278 -42 0
-278 82 0
-278 -25 0
-278 -6 0
-278 63 0
278 42 -82 25 6 -63 0
-279 -86 0
-279 111 0
-279 -69 0
-279 59 0
-279 -33 0
279 86 -111 69 -59 33 0
-280 90 0
-280 121 0
-280 134 0
-280 118 0
-280 62 0
280 -90 -121 -134 -118 -62 0
276 277 278 279 280 0
-281 -10 0
-281 -111 0
-281 -17 0
-281 24 0
-281 -23 0
281 10 111 17 -24 23 0
-282 -155 0
-282 122 0
-282 -10 0
-282 77 0
-282 49 0
282 155 -122 10 -77 -49 0
-283 49 0
-283 -80 0
-283 65 0
-283 -173 0
-283 159 0
283 -49 80 -65 173 -159 0
-284 86 0
-284 104 0
-284 -119 0
-284 -22 0
-284 127 0
284 -86 -104 119 22 -127 0
-285 60 0
-285 131 0
-285 37 0
-285 168 0
-285 -124 0
285 -60 -131 -37 -168 124 0
281 282 283 284 285 0
-286 33 0
-286 -57 0
-286 -189 0
-286 -102 0
-286 174 0
286 -33 57 189 102 -174 0
-287 176 0
-287 -163 0
-287 60 0
-287 -52 0
-287 108 0
287 -176 163 -60 52 -108 0
-288 -103 0
-288 17 0
-288 -34 0
-288 -12 0
-288 -160 0
288 103 -17 34 12 160 0
-289 28 0
-289 -97 0
-289 62 0
-289 -114 0
-289 90 0
289 -28 97 -62 114 -90 0
-290 -17 0
-290 158 0
-290 83 0
-290 77 0
-290 -127 0
290 17 -158 -83 -77 127 0
286 287 288 289 290 0
-291 -40 0
-291 -11 0
-291 -170 0
-291 -19 0
-291 73 0
291 40 11 170 19 -73 0
-292 -166 0
-292 -63 0
-292 -3 0
-292 -81 0
-292 105 0
292 166 63 3 81 -105 0
-293 129 0
-293 -148 0
-293 171 0
-293 147 0
-293 -158 0
293 -129 148 -171 -147 158 0
-294 33 0
-294 -99 0
-294 98 0
-294 32 0
-294 -139 0
294 -33 99 -98 -32 139 0
-295 146 0
-295 -121 0
-295 -163 0
-295 39 0
-295 144 0
295 -146 121 163 -39 -144 0
291 292 293 294 295 0
-296 -4 0
-296 -150 0
-296 65 0
-296 -74 0
-296 88 0
296 4 150 -65 74 -88 0
-297 -69 0
-297 22 0
-297 -68 0
-297 -13 0
-297 123 0
297 69 -22 68 13 -123 0
-298 21 0
-298 -42 0
-298 35 0
-298 189 0
-298 -149 0
298 -21 42 -35 -189 149 0
-299 -75 0
-299 -26 0
-299 114 0
-299 8 0
-299 12 0
299 75 26 -114 -8 -12 0
-300 -171 0
-300 -134 0
-300 166 0
-300 -26 0
-300 163 0
300 171 134 -166 26 -163 0
296 297 298 299 300 0
-301 65 0
-301 166 0
-301 113 0
-301 -111 0
-301 -159 0
301 -65 -166 -113 111 159 0
-302 -8 0
-302 -152 0
-302 16 0
-302 -119 0
-302 -21 0
302 8 152 -16 119 21 0
-303 -52 0
-303 79 0
-303 -41 0
-303 -64 0
-303 -87 0
303 52 -79 41 64 87 0
-304 -35 0
-304 -49 0
-304 73 0
-304 -168 0
-304 -30 0
304 35 49 -73 168 30 0
-305 153 0
-305 -42 0
-305 -163 0
-305 -12 0
-305 160 0
305 -153 42 163 12 -160 0
301 302 303 304 305 0
-306 150 0
-306 -88 0
-306 -128 0
-306 87 0
-306 158 0
306 -150 88 128 -87 -158 0
-307 132 0
-307 -19 0
-307 79 0
-307 -77 0
-307 -152 0
307 -132 19 -79 77 152 0
-308 155 0
-308 80 0
-308 152 0
-308 137 0
-308 9 0
308 -155 -80 -152 -137 -9 0
-309 -60 0
-309 -179 0
-309 -168 0
-309 38 0
-309 55 0
309 60 179 168 -38 -55 0
-310 187 0
-310 -186 0
-310 -178 0
-310 -140 0
-310 -112 0
310 -187 186 178 140 112 0
306 307 308 309 310 0
-311 -117 0
-311 -66 0
-311 122 0
-311 78 0
-311 20 0
311 117 66 -122 -78 -20 0
-312 -102 0
-312 62 0
-312 -177 0
-312 32 0
-312 -151 0
312 102 -62 177 -32 151 0
-313 -17 0
-313 86 0
-313 153 0
-313 -88 0
-313 -94 0
313 17 -86 -153 88 94 0
-314 121 0
-314 -184 0
-314 188 0
-314 -103 0
-314 140 0
314 -121 184 -188 103 -140 0
-315 -19 0
-315 1 0
-315 -28 0
-315 128 0
-315 -43 0
315 19 -1 28 -128 43 0
311 312 313 314 315 0
-316 139 0
-316 43 0
-316 8 0
-316 7 0
-316 9 0
316 -139 -43 -8 -7 -9 0
-317 -160 0
-317 -137 0
-317 189 0
-317 173 0
-317 -125 0
317 160 137 -189 -173 125 0
-318 47 0
-318 -82 0
-318 57 0
-318 113 0
-318 99 0
318 -47 82 -57 -113 -99 0
-319 -144 0
-319 -186 0
-319 74 0
-319 105 0
-319 -179 0
319 144 186 -74 -105 179 0
-320 178 0
-320 -48 0
-320 -184 0
-320 -75 0
-320 -96 0
320 -178 48 184 75 96 0
316 317 318 319 320 0
-321 -93 0
-321 -39 0
-321 -162 0
-321 -147 0
-321 187 0
321 93 39 162 147 -187 0
-322 -93 0
-322 -34 0
-322 173 0
-322 -102 0
-322 28 0
322 93 34 -173 102 -28 0
-323 34 0
-323 -61 0
-323 -49 0
-323 143 0
-323 70 0
323 -34 61 49 -143 -70 0
-324 -188 0
-324 83 0
-324 121 0
-324 5 0
-324 -140 0
324 188 -83 -121 -5 140 0
-325 -156 0
-325 -163 0
-325 -116 0
-325 -47 0
-325 -174 0
325 156 163 116 47 174 0
321 322 323 324 325 0
-326 -18 0
-326 144 0
-326 -149 0
-326 -91 0
-326 -16 0
326 18 -144 149 91 16 0
-327 -93 0
-327 143 0
-327 154 0
-327 22 0
-327 -26 0
327 93 -143 -154 -22 26 0
-328 -63 0
-328 -4 0
-328 82 0
-328 90 0
-328 -38 0
328 63 4 -82 -90 38 0
-329 -146 0
-329 -131 0
-329 107 0
-329 13 0
-329 8 0
329 146 131 -107 -13 -8 0
-330 -133 0
-330 -82 0
-330 83 0
-330 -48 0
-330 -76 0
330 133 82 -83 48 76 0
326 327 328 329 330 0
-331 129 0
-331 1 0
-331 -31 0
-331 -168 0
-331 143 0
331 -129 -1 31 168 -143 0
-332 146 0
-332 -173 0
-332 172 0
-332 -90 0
-332 -80 0
332 -146 173 -172 90 80 0
-333 63 0
-333 171 0
-333 124 0
-333 172 0
-333 -42 0
333 -63 -171 -124 -172 42 0
-334 16 0
-334 135 0
-334 -63 0
-334 74 0
-334 -51 0
334 -16 -135 63 -74 51 0
-335 81 0
-335 154 0
-335 123 0
-335 119 0
-335 93 0
335 -81 -154 -123 -119 -93 0
331 332 333 334 335 0
-336 116 0
-336 -53 0
-336 -34 0
-336 152 0
-336 128 0
336 -116 53 34 -152 -128 0
-337 -160 0
-337 48 0
-337 70 0
-337 152 0
-337 -20 0
337 160 -48 -70 -152 20 0
-338 -124 0
-338 50 0
-338 76 0
-338 -22 0
-338 111 0
338 124 -50 -76 22 -111 0
-339 -28 0
-339 -117 0
-339 -47 0
-339 -63 0
-339 -159 0
339 28 117 47 63 159 0
-340 -94 0
-340 19 0
-340 187 0
-340 127 0
-340 -34 0
340 94 -19 -187 -127 34 0
336 337 338 339 340 0
-341 43 0
-341 -8 0
-341 -112 0
-341 -160 0
-341 35 0
341 -43 8 112 160 -35 0
-342 39 0
-342 144 0
-342 53 0
-342 -118 0
-342 140 0
342 -39 -144 -53 118 -140 0
-343 -61 0
-343 179 0
-343 -54 0
-343 190 0
-343 80 0
343 61 -179 54 -190 -80 0
-344 7 0
-344 -30 0
-344 70 0
-344 161 0
-344 46 0
344 -7 30 -70 -161 -46 0
-345 -96 0
-345 102 0
-345 182 0
-345 74 0
-345 136 0
345 96 -102 -182 -74 -136 0
341 342 343 344 345 0
-346 68 0
-346 -67 0
-346 -18 0
-346 114 0
-346 47 0
346 -68 67 18 -114 -47 0
-347 -133 0
-347 8 0
-347 120 0
-347 37 0
-347 42 0
347 133 -8 -120 -37 -42 0
-348 118 0
-348 152 0
-348 132 0
-348 47 0
-348 -128 0
348 -118 -152 -132 -47 128 0
-349 -116 0
-349 17 0
-349 -168 0
-349 -138 0
-349 -169 0
349 116 -17 168 138 169 0
-350 -35 0
-350 156 0
-350 -131 0
-350 134 0
-350 -50 0
350 35 -156 131 -134 50 0
346 347 348 349 350 0
-351 23 0
-351 60 0
-351 -91 0
-351 187 0
-351 69 0
351 -23 -60 91 -187 -69 0
-352 185 0
-352 83 0
-352 63 0
-352 -120 0
-352 41 0
352 -185 -83 -63 120 -41 0
-353 159 0
-353 -18 0
-353 60 0
-353 -5 0
-353 178 0
353 -159 18 -60 5 -178 0
-354 49 0
-354 117 0
-354 14 0
-354 26 0
-354 93 0
354 -49 -117 -14 -26 -93 0
-355 59 0
-355 -74 0
-355 -104 0
-355 65 0
-355 -127 0
355 -59 74 104 -65 127 0
351 352 353 354 355 0
-356 -142 0
-356 -27 0
-356 162 0
-356 -99 0
-356 -173 0
356 142 27 -162 99 173 0
-357 -186 0
-357 181 0
-357 2 0
-357 -45 0
-357 127 0
357 186 -181 -2 45 -127 0
-358 41 0
-358 136 0
-358 -185 0
-358 -60 0
-358 70 0
358 -41 -136 185 60 -70 0
-359 -110 0
-359 117 0
-359 -42 0
-359 36 0
-359 122 0
359 110 -117 42 -36 -122 0
-360 -117 0
-360 35 0
-360 -55 0
-360 148 0
-360 -36 0
360 117 -35 55 -148 36 0
356 357 358 359 360 0
-361 77 0
-361 -85 0
-361 81 0
-361 18 0
-361 2 0
361 -77 85 -81 -18 -2 0
-362 -3 0
-362 -135 0
-362 -153 0
-362 51 0
-362 190 0
362 3 135 153 -51 -190 0
-363 52 0
-363 -177 0
-363 -189 0
-363 -62 0
-363 -137 0
363 -52 177 189 62 137 0
-364 -141 0
-364 8 0
-364 -13 0
-364 15 0
-364 -93 0
364 141 -8 13 -15 93 0
-365 -86 0
-365 40 0
-365 144 0
-365 -71 0
-365 42 0
365 86 -40 -144 71 -42 0
361 362 363 364 365 0
-366 -70 0
-366 -160 0
-366 140 0
-366 -65 0
-366 -158 0
366 70 160 -140 65 158 0
-367 10 0
-367 65 0
-367 -40 0
-367 140 0
-367 -182 0
367 -10 -65 40 -140 182 0
-368 -17 0
-368 -8 0
-368 -123 0
-368 -137 0
-368 -64 0
368 17 8 123 137 64 0
-369 22 0
-369 -84 0
-369 34 0
-369 65 0
-369 -102 0
369 -22 84 -34 -65 102 0
-370 186 0
-370 -34 0
-370 182 0
-370 -62 0
-370 -119 0
370 -186 34 -182 62 119 0
366 367 368 369 370 0
-371 80 0
-371 16 0
-371 103 0
-371 -57 0
-371 123 0
371 -80 -16 -103 57 -123 0
-372 54 0
-372 -95 0
-372 -86 0
-372 159 0
-372 -113 0
372 -54 95 86 -159 113 0
-373 -24 0
-373 53 0
-373 -91 0
-373 189 0
-373 -28 0
373 24 -53 91 -189 28 0
-374 -164 0
-374 81 0
-374 48 0
-374 71 0
-374 32 0
374 164 -81 -48 -71 -32 0
-375 -139 0
-375 146 0
-375 -171 0
-375 120 0
-375 104 0
375 139 -146 171 -120 -104 0
371 372 373 374 375 0
-376 -116 0
-376 -51 0
-376 -49 0
-376 80 0
-376 69 0
376 116 51 49 -80 -69 0
-377 -87 0
-377 -151 0
-377 77 0
-377 134 0
-377 31 0
377 87 151 -77 -134 -31 0
-378 99 0
-378 -85 0
-378 60 0
-378 63 0
-378 8 0
378 -99 85 -60 -63 -8 0
-379 163 0
-379 130 0
-379 -134 0
-379 10 0
-379 92 0
379 -163 -130 134 -10 -92 0
-380 15 0
-380 114 0
-380 57 0
-380 -8 0
-380 140 0
380 -15 -114 -57 8 -140 0
376 377 378 379 380 0
-381 69 0
-381 -70 0
-381 -31 0
-381 41 0
-381 10 0
381 -69 70 31 -41 -10 0
-382 96 0
-382 -86 0
-382 -50 0
-382 -128 0
-382 -184 0
382 -96 86 50 128 184 0
-383 -87 0
-383 112 0
-383 -95 0
-383 159 0
-383 -131 0
383 87 -112 95 -159 131 0
-384 -125 0
-384 -15 0
-384 -93 0
-384 -141 0
-384 -111 0
384 125 15 93 141 111 0
-385 -40 0
-385 -22 0
-385 126 0
-385 57 0
-385 161 0
385 40 22 -126 -57 -161 0
381 382 383 384 385 0
-386 -113 0
-386 41 0
-386 101 0
-386 42 0
-386 -139 0
386 113 -41 -101 -42 139 0
-387 -142 0
-387 -131 0
-387 -182 0
-387 -134 0
-387 21 0
387 142 131 182 134 -21 0
-388 105 0
-388 133 0
-388 -59 0
-388 -114 0
-388 -3 0
388 -105 -133 59 114 3 0
-389 71 0
-389 81 0
-389 131 0
-389 -139 0
-389 63 0
389 -71 -81 -131 139 -63 0
-390 -118 0
-390 138 0
-390 75 0
-390 -164 0
-390 23 0
390 118 -138 -75 164 -23 0
386 387 388 389 390 0
-391 -167 0
-391 -137 0
-391 98 0
-391 -82 0
-391 118 0
391 167 137 -98 82 -118 0
-392 -94 0
-392 -166 0
-392 186 0
-392 -170 0
-392 -140 0
392 94 166 -186 170 140 0
-393 165 0
-393 -5 0
-393 -32 0
-393 127 0
-393 100 0
393 -165 5 32 -127 -100 0
-394 129 0
-394 -170 0
-394 80 0
-394 -159 0
-394 -119 0
394 -129 170 -80 159 119 0
-395 -39 0
-395 71 0
-395 -79 0
-395 170 0
-395 108 0
395 39 -71 79 -170 -108 0
391 392 393 394 395 0
-396 82 0
-396 144 0
-396 -66 0
-396 -174 0
-396 -128 0
396 -82 -144 66 174 128 0
-397 -189 0
-397 32 0
-397 62 0
-397 -104 0
-397 -88 0
397 189 -32 -62 104 88 0
-398 65 0
-398 52 0
-398 43 0
-398 23 0
-398 109 0
398 -65 -52 -43 -23 -109 0
-399 -182 0
-399 -160 0
-399 -88 0
-399 128 0
-399 94 0
399 182 160 88 -128 -94 0
-400 -1 0
-400 19 0
-400 -101 0
-400 -28 0
-400 48 0
400 1 -19 101 28 -48 0
396 397 398 399 400 0
-401 -12 0
-401 180 0
-401 -103 0
-401 17 0
-401 38 0
401 12 -180 103 -17 -38 0
-402 66 0
-402 -50 0
-402 -78 0
-402 -5 0
-402 -129 0
402 -66 50 78 5 129 0
-403 -21 0
-403 -113 0
-403 -40 0
-403 22 0
-403 -155 0
403 21 113 40 -22 155 0
-404 -45 0
-404 -164 0
-404 79 0
-404 -116 0
-404 27 0
404 45 164 -79 116 -27 0
-405 118 0
-405 -188 0
-405 -109 0
-405 -182 0
-405 21 0
405 -118 188 109 182 -21 0
401 402 403 404 405 0
-406 10 0
-406 -158 0
-406 -24 0
-406 67 0
-406 59 0
406 -10 158 24 -67 -59 0
-407 105 0
-407 -82 0
-407 86 0
-407 96 0
-407 -88 0
407 -105 82 -86 -96 88 0
-408 50 0
-408 139 0
-408 82 0
-408 -152 0
-408 -135 0
408 -50 -139 -82 152 135 0
-409 -74 0
-409 123 0
-409 -169 0
-409 -100 0
-409 106 0
409 74 -123 169 100 -106 0
-410 -43 0
-410 41 0
-410 138 0
-410 -187 0
-410 180 0
410 43 -41 -138 187 -180 0
406 407 408 409 410 0
-411 71 0
-411 32 0
-411 79 0
-411 -123 0
-411 -103 0
411 -71 -32 -79 123 103 0
-412 140 0
-412 16 0
-412 88 0
-412 -14 0
-412 47 0
412 -140 -16 -88 14 -47 0
-413 -109 0
-413 79 0
-413 70 0
-413 -67 0
-413 -108 0
413 109 -79 -70 67 108 0
-414 87 0
-414 97 0
-414 45 0
-414 188 0
-414 139 0
414 -87 -97 -45 -188 -139 0
-415 -187 0
-415 -136 0
-415 -182 0
-415 -88 0
-415 -129 0
415 187 136 182 88 129 0
411 412 413 414 415 0
-416 156 0
-416 37 0
-416 128 0
-416 22 0
-416 -174 0
416 -156 -37 -128 -22 174 0
-417 120 0
-417 165 0
-417 -182 0
-417 -69 0
-417 130 0
417 -120 -165 182 69 -130 0
-418 118 0
-418 -104 0
-418 -16 0
-418 -71 0
-418 167 0
418 -118 104 16 71 -167 0
-419 -126 0
-419 156 0
-419 133 0
-419 106 0
-419 -118 0
419 126 -156 -133 -106 118 0
-420 98 0
-420 186 0
-420 -116 0
-420 52 0
-420 -23 0
420 -98 -186 116 -52 23 0
416 417 418 419 420 0
-421 125 0
-421 95 0
-421 -186 0
-421 -119 0
-421 113 0
421 -125 -95 186 119 -113 0
-422 -59 0
-422 -184 0
-422 -17 0
-422 -41 0
-422 150 0
422 59 184 17 41 -150 0
-423 -173 0
-423 78 0
-423 -103 0
-423 95 0
-423 32 0
423 173 -78 103 -95 -32 0
-424 132 0
-424 40 0
-424 -51 0
-424 125 0
-424 -141 0
424 -132 -40 51 -125 141 0
-425 96 0
-425 -134 0
-425 48 0
-425 27 0
-425 -130 0
425 -96 134 -48 -27 130 0
421 422 423 424 425 0
-426 -15 0
-426 -110 0
-426 -149 0
-426 21 0
-426 120 0
426 15 110 149 -21 -120 0
-427 -166 0
-427 101 0
-427 155 0
-427 154 0
-427 119 0
427 166 -101 -155 -154 -119 0
-428 101 0
-428 -82 0
-428 186 0
-428 39 0
-428 125 0
428 -101 82 -186 -39 -125 0
-429 -37 0
-429 -35 0
-429 -117 0
-429 -32 0
-429 -36 0
429 37 35 117 32 36 0
-430 -130 0
-430 38 0
-430 -21 0
-430 151 0
-430 -105 0
430 130 -38 21 -151 105 0
426 427 428 429 430 0
